PROBLEM NAME: eil51_n8
KNAPSACK DATA TYPE: uncorrelated, similar weights
DIMENSION: 8
NUMBER OF ITEMS: 7
CAPACITY OF KNAPSACK: 636530
MIN SPEED: 0.1
MAX SPEED: 1
RENTING RATIO: 11.63
EDGE_WEIGHT_TYPE: CEIL_2D
NODE_COORD_SECTION	(INDEX, X, Y):
1	52	64
2	57	58
3	16	57
4	27	68
5	58	48
6	10	17
7	39	10
8	48	28
ITEMS SECTION	(INDEX, PROFIT, WEIGHT, ASSIGNED NODE NUMBER):
1	930	100080	4
2	925	100033	3
3	906	100007	6
4	811	100011	7
5	724	100026	8
6	428	100017	5
7	416	100009	2
